(declare-const delta_y Int)
(declare-const delta_x Int)
(declare-const delta_tmp Int)
(assert (exists
         ((|tmp'?1| Int) (|y'?2| Int) (|x'?3| Int) (phi_y?4 Int)
            (phi_x?5 Int) (havoc?6 Int) (x?7 Int) (y?8 Int) (tmp?9 Int)
            (z?10 Int) (w?11 Int))
         (and (<= (- x?7) 0) (<= (- y?8) 0) (<= (- z?10) 0) (< (- w?11) 0)
                (= (+ (- w?11) z?10 1) 0) (= (+ (- y?8) x?7) 0)
                (< (+ x?7 -100000) 0) (< (+ y?8 -100000) 0)
                (or (< havoc?6 0) (< 0 havoc?6))
                (or (and (= (+ (mod w?11 2) -1) 0)
                           (= (+ (- phi_x?5) x?7 1) 0))
                      (and (or (< (+ (mod w?11 2) -1) 0)
                                 (< 0 (+ (mod w?11 2) -1)))
                             (= (+ (- phi_x?5) x?7) 0)))
                (or (and (= (mod z?10 2) 0) (= (+ (- phi_y?4) y?8 1) 0))
                      (and (or (< (mod z?10 2) 0) (< 0 (mod z?10 2)))
                             (= (+ (- phi_y?4) y?8) 0)))
                (= (+ |tmp'?1| (- havoc?6)) 0) (= (+ |y'?2| (- phi_y?4)) 0)
                (= (+ |x'?3| (- phi_x?5)) 0) (= delta_x (+ |x'?3| (- x?7)))
                (= delta_y (+ |y'?2| (- y?8)))
                (= delta_tmp (+ |tmp'?1| (- tmp?9))))))
(check-sat)
